\ENCODING=ISO-8859-1
\Problem name: 

Minimize
 obj1: 3 x_0_1 + 7 x_0_2 + 8 x_0_3 + x_0_4 + 5 x_0_5 + 3 x_0_6 + 8 x_0_7
       + 5 x_0_8 + x_0_9 + 3 x_0_10 + 7 x_0_11 + 5 x_0_12 + 7 x_0_13 + 3 x_0_14
       + 5 x_0_15 + x_0_16 + 3 x_0_17 + 7 x_0_18 + 3 x_1_0 + 7 x_1_2 + 5 x_1_3
       + 5 x_1_4 + 8 x_1_5 + 7 x_1_6 + 12 x_1_7 + 8 x_1_8 + 5 x_1_9 + 7 x_1_10
       + 10 x_1_11 + x_1_12 + 3 x_1_13 + 7 x_1_14 + x_1_15 + 5 x_1_16
       + 3 x_1_17 + 10 x_1_18 + 7 x_2_0 + 7 x_2_1 + 12 x_2_3 + 8 x_2_4
       + 8 x_2_5 + 3 x_2_6 + 5 x_2_7 + 5 x_2_8 + 8 x_2_9 + 7 x_2_10 + 7 x_2_11
       + 8 x_2_12 + 10 x_2_13 + 10 x_2_14 + 5 x_2_15 + 5 x_2_16 + 7 x_2_17
       + 14 x_2_18 + 8 x_3_0 + 5 x_3_1 + 12 x_3_2 + 10 x_3_4 + 14 x_3_5
       + 12 x_3_6 + 17 x_3_7 + 14 x_3_8 + 7 x_3_9 + 12 x_3_10 + 15 x_3_11
       + 3 x_3_12 + x_3_13 + 8 x_3_14 + 7 x_3_15 + 10 x_3_16 + 5 x_3_17
       + 8 x_3_18 + x_4_0 + 5 x_4_1 + 8 x_4_2 + 10 x_4_3 + 3 x_4_5 + 5 x_4_6
       + 7 x_4_7 + 3 x_4_8 + 3 x_4_9 + x_4_10 + 5 x_4_11 + 7 x_4_12 + 8 x_4_13
       + x_4_14 + 7 x_4_15 + 3 x_4_16 + 5 x_4_17 + 5 x_4_18 + 5 x_5_0 + 8 x_5_1
       + 8 x_5_2 + 14 x_5_3 + 3 x_5_4 + 5 x_5_6 + 3 x_5_7 + 3 x_5_8 + 7 x_5_9
       + x_5_10 + x_5_11 + 10 x_5_12 + 12 x_5_13 + 5 x_5_14 + 7 x_5_15
       + 3 x_5_16 + 8 x_5_17 + 5 x_5_18 + 3 x_6_0 + 7 x_6_1 + 3 x_6_2
       + 12 x_6_3 + 5 x_6_4 + 5 x_6_5 + 5 x_6_7 + x_6_8 + 5 x_6_9 + 3 x_6_10
       + 3 x_6_11 + 8 x_6_12 + 10 x_6_13 + 7 x_6_14 + 5 x_6_15 + x_6_16
       + 7 x_6_17 + 10 x_6_18 + 8 x_7_0 + 12 x_7_1 + 5 x_7_2 + 17 x_7_3
       + 7 x_7_4 + 3 x_7_5 + 5 x_7_6 + 3 x_7_8 + 10 x_7_9 + 5 x_7_10 + x_7_11
       + 14 x_7_12 + 15 x_7_13 + 8 x_7_14 + 10 x_7_15 + 7 x_7_16 + 12 x_7_17
       + 8 x_7_18 + 5 x_8_0 + 8 x_8_1 + 5 x_8_2 + 14 x_8_3 + 3 x_8_4 + 3 x_8_5
       + x_8_6 + 3 x_8_7 + 7 x_8_9 + x_8_10 + x_8_11 + 10 x_8_12 + 12 x_8_13
       + 5 x_8_14 + 7 x_8_15 + 3 x_8_16 + 8 x_8_17 + 8 x_8_18 + x_9_0 + 5 x_9_1
       + 8 x_9_2 + 7 x_9_3 + 3 x_9_4 + 7 x_9_5 + 5 x_9_6 + 10 x_9_7 + 7 x_9_8
       + 5 x_9_10 + 8 x_9_11 + 3 x_9_12 + 5 x_9_13 + x_9_14 + 7 x_9_15
       + 3 x_9_16 + x_9_17 + 5 x_9_18 + 3 x_10_0 + 7 x_10_1 + 7 x_10_2
       + 12 x_10_3 + x_10_4 + x_10_5 + 3 x_10_6 + 5 x_10_7 + x_10_8 + 5 x_10_9
       + 3 x_10_11 + 8 x_10_12 + 10 x_10_13 + 3 x_10_14 + 5 x_10_15 + x_10_16
       + 7 x_10_17 + 7 x_10_18 + 7 x_11_0 + 10 x_11_1 + 7 x_11_2 + 15 x_11_3
       + 5 x_11_4 + x_11_5 + 3 x_11_6 + x_11_7 + x_11_8 + 8 x_11_9 + 3 x_11_10
       + 12 x_11_12 + 14 x_11_13 + 7 x_11_14 + 8 x_11_15 + 5 x_11_16
       + 10 x_11_17 + 7 x_11_18 + 5 x_12_0 + x_12_1 + 8 x_12_2 + 3 x_12_3
       + 7 x_12_4 + 10 x_12_5 + 8 x_12_6 + 14 x_12_7 + 10 x_12_8 + 3 x_12_9
       + 8 x_12_10 + 12 x_12_11 + x_12_13 + 5 x_12_14 + 3 x_12_15 + 7 x_12_16
       + x_12_17 + 8 x_12_18 + 7 x_13_0 + 3 x_13_1 + 10 x_13_2 + x_13_3
       + 8 x_13_4 + 12 x_13_5 + 10 x_13_6 + 15 x_13_7 + 12 x_13_8 + 5 x_13_9
       + 10 x_13_10 + 14 x_13_11 + x_13_12 + 7 x_13_14 + 5 x_13_15 + 8 x_13_16
       + 3 x_13_17 + 7 x_13_18 + 3 x_14_0 + 7 x_14_1 + 10 x_14_2 + 8 x_14_3
       + x_14_4 + 5 x_14_5 + 7 x_14_6 + 8 x_14_7 + 5 x_14_8 + x_14_9
       + 3 x_14_10 + 7 x_14_11 + 5 x_14_12 + 7 x_14_13 + 8 x_14_15 + 5 x_14_16
       + 3 x_14_17 + 3 x_14_18 + 5 x_15_0 + x_15_1 + 5 x_15_2 + 7 x_15_3
       + 7 x_15_4 + 7 x_15_5 + 5 x_15_6 + 10 x_15_7 + 7 x_15_8 + 7 x_15_9
       + 5 x_15_10 + 8 x_15_11 + 3 x_15_12 + 5 x_15_13 + 8 x_15_14 + 3 x_15_16
       + 5 x_15_17 + 12 x_15_18 + x_16_0 + 5 x_16_1 + 5 x_16_2 + 10 x_16_3
       + 3 x_16_4 + 3 x_16_5 + x_16_6 + 7 x_16_7 + 3 x_16_8 + 3 x_16_9
       + x_16_10 + 5 x_16_11 + 7 x_16_12 + 8 x_16_13 + 5 x_16_14 + 3 x_16_15
       + 5 x_16_17 + 8 x_16_18 + 3 x_17_0 + 3 x_17_1 + 7 x_17_2 + 5 x_17_3
       + 5 x_17_4 + 8 x_17_5 + 7 x_17_6 + 12 x_17_7 + 8 x_17_8 + x_17_9
       + 7 x_17_10 + 10 x_17_11 + x_17_12 + 3 x_17_13 + 3 x_17_14 + 5 x_17_15
       + 5 x_17_16 + 7 x_17_18 + 7 x_18_0 + 10 x_18_1 + 14 x_18_2 + 8 x_18_3
       + 5 x_18_4 + 5 x_18_5 + 10 x_18_6 + 8 x_18_7 + 8 x_18_8 + 5 x_18_9
       + 7 x_18_10 + 7 x_18_11 + 8 x_18_12 + 7 x_18_13 + 3 x_18_14 + 12 x_18_15
       + 8 x_18_16 + 7 x_18_17 + 0 u_0
Subject To
 _entra_a_1#0:        x_0_1 + x_2_1 + x_3_1 + x_4_1 + x_5_1 + x_6_1 + x_7_1
                      + x_8_1 + x_9_1 + x_10_1 + x_11_1 + x_12_1 + x_13_1
                      + x_14_1 + x_15_1 + x_16_1 + x_17_1 + x_18_1  = 1
 sale_de_1#1:         x_1_0 + x_1_2 + x_1_3 + x_1_4 + x_1_5 + x_1_6 + x_1_7
                      + x_1_8 + x_1_9 + x_1_10 + x_1_11 + x_1_12 + x_1_13
                      + x_1_14 + x_1_15 + x_1_16 + x_1_17 + x_1_18  = 1
 _entra_a_2#2:        x_0_2 + x_1_2 + x_3_2 + x_4_2 + x_5_2 + x_6_2 + x_7_2
                      + x_8_2 + x_9_2 + x_10_2 + x_11_2 + x_12_2 + x_13_2
                      + x_14_2 + x_15_2 + x_16_2 + x_17_2 + x_18_2  = 1
 sale_de_2#3:         x_2_0 + x_2_1 + x_2_3 + x_2_4 + x_2_5 + x_2_6 + x_2_7
                      + x_2_8 + x_2_9 + x_2_10 + x_2_11 + x_2_12 + x_2_13
                      + x_2_14 + x_2_15 + x_2_16 + x_2_17 + x_2_18  = 1
 _entra_a_3#4:        x_0_3 + x_1_3 + x_2_3 + x_4_3 + x_5_3 + x_6_3 + x_7_3
                      + x_8_3 + x_9_3 + x_10_3 + x_11_3 + x_12_3 + x_13_3
                      + x_14_3 + x_15_3 + x_16_3 + x_17_3 + x_18_3  = 1
 sale_de_3#5:         x_3_0 + x_3_1 + x_3_2 + x_3_4 + x_3_5 + x_3_6 + x_3_7
                      + x_3_8 + x_3_9 + x_3_10 + x_3_11 + x_3_12 + x_3_13
                      + x_3_14 + x_3_15 + x_3_16 + x_3_17 + x_3_18  = 1
 _entra_a_4#6:        x_0_4 + x_1_4 + x_2_4 + x_3_4 + x_5_4 + x_6_4 + x_7_4
                      + x_8_4 + x_9_4 + x_10_4 + x_11_4 + x_12_4 + x_13_4
                      + x_14_4 + x_15_4 + x_16_4 + x_17_4 + x_18_4  = 1
 sale_de_4#7:         x_4_0 + x_4_1 + x_4_2 + x_4_3 + x_4_5 + x_4_6 + x_4_7
                      + x_4_8 + x_4_9 + x_4_10 + x_4_11 + x_4_12 + x_4_13
                      + x_4_14 + x_4_15 + x_4_16 + x_4_17 + x_4_18  = 1
 _entra_a_5#8:        x_0_5 + x_1_5 + x_2_5 + x_3_5 + x_4_5 + x_6_5 + x_7_5
                      + x_8_5 + x_9_5 + x_10_5 + x_11_5 + x_12_5 + x_13_5
                      + x_14_5 + x_15_5 + x_16_5 + x_17_5 + x_18_5  = 1
 sale_de_5#9:         x_5_0 + x_5_1 + x_5_2 + x_5_3 + x_5_4 + x_5_6 + x_5_7
                      + x_5_8 + x_5_9 + x_5_10 + x_5_11 + x_5_12 + x_5_13
                      + x_5_14 + x_5_15 + x_5_16 + x_5_17 + x_5_18  = 1
 _entra_a_6#10:       x_0_6 + x_1_6 + x_2_6 + x_3_6 + x_4_6 + x_5_6 + x_7_6
                      + x_8_6 + x_9_6 + x_10_6 + x_11_6 + x_12_6 + x_13_6
                      + x_14_6 + x_15_6 + x_16_6 + x_17_6 + x_18_6  = 1
 sale_de_6#11:        x_6_0 + x_6_1 + x_6_2 + x_6_3 + x_6_4 + x_6_5 + x_6_7
                      + x_6_8 + x_6_9 + x_6_10 + x_6_11 + x_6_12 + x_6_13
                      + x_6_14 + x_6_15 + x_6_16 + x_6_17 + x_6_18  = 1
 _entra_a_7#12:       x_0_7 + x_1_7 + x_2_7 + x_3_7 + x_4_7 + x_5_7 + x_6_7
                      + x_8_7 + x_9_7 + x_10_7 + x_11_7 + x_12_7 + x_13_7
                      + x_14_7 + x_15_7 + x_16_7 + x_17_7 + x_18_7  = 1
 sale_de_7#13:        x_7_0 + x_7_1 + x_7_2 + x_7_3 + x_7_4 + x_7_5 + x_7_6
                      + x_7_8 + x_7_9 + x_7_10 + x_7_11 + x_7_12 + x_7_13
                      + x_7_14 + x_7_15 + x_7_16 + x_7_17 + x_7_18  = 1
 _entra_a_8#14:       x_0_8 + x_1_8 + x_2_8 + x_3_8 + x_4_8 + x_5_8 + x_6_8
                      + x_7_8 + x_9_8 + x_10_8 + x_11_8 + x_12_8 + x_13_8
                      + x_14_8 + x_15_8 + x_16_8 + x_17_8 + x_18_8  = 1
 sale_de_8#15:        x_8_0 + x_8_1 + x_8_2 + x_8_3 + x_8_4 + x_8_5 + x_8_6
                      + x_8_7 + x_8_9 + x_8_10 + x_8_11 + x_8_12 + x_8_13
                      + x_8_14 + x_8_15 + x_8_16 + x_8_17 + x_8_18  = 1
 _entra_a_9#16:       x_0_9 + x_1_9 + x_2_9 + x_3_9 + x_4_9 + x_5_9 + x_6_9
                      + x_7_9 + x_8_9 + x_10_9 + x_11_9 + x_12_9 + x_13_9
                      + x_14_9 + x_15_9 + x_16_9 + x_17_9 + x_18_9  = 1
 sale_de_9#17:        x_9_0 + x_9_1 + x_9_2 + x_9_3 + x_9_4 + x_9_5 + x_9_6
                      + x_9_7 + x_9_8 + x_9_10 + x_9_11 + x_9_12 + x_9_13
                      + x_9_14 + x_9_15 + x_9_16 + x_9_17 + x_9_18  = 1
 _entra_a_10#18:      x_0_10 + x_1_10 + x_2_10 + x_3_10 + x_4_10 + x_5_10
                      + x_6_10 + x_7_10 + x_8_10 + x_9_10 + x_11_10 + x_12_10
                      + x_13_10 + x_14_10 + x_15_10 + x_16_10 + x_17_10
                      + x_18_10  = 1
 sale_de_10#19:       x_10_0 + x_10_1 + x_10_2 + x_10_3 + x_10_4 + x_10_5
                      + x_10_6 + x_10_7 + x_10_8 + x_10_9 + x_10_11 + x_10_12
                      + x_10_13 + x_10_14 + x_10_15 + x_10_16 + x_10_17
                      + x_10_18  = 1
 _entra_a_11#20:      x_0_11 + x_1_11 + x_2_11 + x_3_11 + x_4_11 + x_5_11
                      + x_6_11 + x_7_11 + x_8_11 + x_9_11 + x_10_11 + x_12_11
                      + x_13_11 + x_14_11 + x_15_11 + x_16_11 + x_17_11
                      + x_18_11  = 1
 sale_de_11#21:       x_11_0 + x_11_1 + x_11_2 + x_11_3 + x_11_4 + x_11_5
                      + x_11_6 + x_11_7 + x_11_8 + x_11_9 + x_11_10 + x_11_12
                      + x_11_13 + x_11_14 + x_11_15 + x_11_16 + x_11_17
                      + x_11_18  = 1
 _entra_a_12#22:      x_0_12 + x_1_12 + x_2_12 + x_3_12 + x_4_12 + x_5_12
                      + x_6_12 + x_7_12 + x_8_12 + x_9_12 + x_10_12 + x_11_12
                      + x_13_12 + x_14_12 + x_15_12 + x_16_12 + x_17_12
                      + x_18_12  = 1
 sale_de_12#23:       x_12_0 + x_12_1 + x_12_2 + x_12_3 + x_12_4 + x_12_5
                      + x_12_6 + x_12_7 + x_12_8 + x_12_9 + x_12_10 + x_12_11
                      + x_12_13 + x_12_14 + x_12_15 + x_12_16 + x_12_17
                      + x_12_18  = 1
 _entra_a_13#24:      x_0_13 + x_1_13 + x_2_13 + x_3_13 + x_4_13 + x_5_13
                      + x_6_13 + x_7_13 + x_8_13 + x_9_13 + x_10_13 + x_11_13
                      + x_12_13 + x_14_13 + x_15_13 + x_16_13 + x_17_13
                      + x_18_13  = 1
 sale_de_13#25:       x_13_0 + x_13_1 + x_13_2 + x_13_3 + x_13_4 + x_13_5
                      + x_13_6 + x_13_7 + x_13_8 + x_13_9 + x_13_10 + x_13_11
                      + x_13_12 + x_13_14 + x_13_15 + x_13_16 + x_13_17
                      + x_13_18  = 1
 _entra_a_14#26:      x_0_14 + x_1_14 + x_2_14 + x_3_14 + x_4_14 + x_5_14
                      + x_6_14 + x_7_14 + x_8_14 + x_9_14 + x_10_14 + x_11_14
                      + x_12_14 + x_13_14 + x_15_14 + x_16_14 + x_17_14
                      + x_18_14  = 1
 sale_de_14#27:       x_14_0 + x_14_1 + x_14_2 + x_14_3 + x_14_4 + x_14_5
                      + x_14_6 + x_14_7 + x_14_8 + x_14_9 + x_14_10 + x_14_11
                      + x_14_12 + x_14_13 + x_14_15 + x_14_16 + x_14_17
                      + x_14_18  = 1
 _entra_a_15#28:      x_0_15 + x_1_15 + x_2_15 + x_3_15 + x_4_15 + x_5_15
                      + x_6_15 + x_7_15 + x_8_15 + x_9_15 + x_10_15 + x_11_15
                      + x_12_15 + x_13_15 + x_14_15 + x_16_15 + x_17_15
                      + x_18_15  = 1
 sale_de_15#29:       x_15_0 + x_15_1 + x_15_2 + x_15_3 + x_15_4 + x_15_5
                      + x_15_6 + x_15_7 + x_15_8 + x_15_9 + x_15_10 + x_15_11
                      + x_15_12 + x_15_13 + x_15_14 + x_15_16 + x_15_17
                      + x_15_18  = 1
 _entra_a_16#30:      x_0_16 + x_1_16 + x_2_16 + x_3_16 + x_4_16 + x_5_16
                      + x_6_16 + x_7_16 + x_8_16 + x_9_16 + x_10_16 + x_11_16
                      + x_12_16 + x_13_16 + x_14_16 + x_15_16 + x_17_16
                      + x_18_16  = 1
 sale_de_16#31:       x_16_0 + x_16_1 + x_16_2 + x_16_3 + x_16_4 + x_16_5
                      + x_16_6 + x_16_7 + x_16_8 + x_16_9 + x_16_10 + x_16_11
                      + x_16_12 + x_16_13 + x_16_14 + x_16_15 + x_16_17
                      + x_16_18  = 1
 _entra_a_17#32:      x_0_17 + x_1_17 + x_2_17 + x_3_17 + x_4_17 + x_5_17
                      + x_6_17 + x_7_17 + x_8_17 + x_9_17 + x_10_17 + x_11_17
                      + x_12_17 + x_13_17 + x_14_17 + x_15_17 + x_16_17
                      + x_18_17  = 1
 sale_de_17#33:       x_17_0 + x_17_1 + x_17_2 + x_17_3 + x_17_4 + x_17_5
                      + x_17_6 + x_17_7 + x_17_8 + x_17_9 + x_17_10 + x_17_11
                      + x_17_12 + x_17_13 + x_17_14 + x_17_15 + x_17_16
                      + x_17_18  = 1
 _entra_a_18#34:      x_0_18 + x_1_18 + x_2_18 + x_3_18 + x_4_18 + x_5_18
                      + x_6_18 + x_7_18 + x_8_18 + x_9_18 + x_10_18 + x_11_18
                      + x_12_18 + x_13_18 + x_14_18 + x_15_18 + x_16_18
                      + x_17_18  = 1
 sale_de_18#35:       x_18_0 + x_18_1 + x_18_2 + x_18_3 + x_18_4 + x_18_5
                      + x_18_6 + x_18_7 + x_18_8 + x_18_9 + x_18_10 + x_18_11
                      + x_18_12 + x_18_13 + x_18_14 + x_18_15 + x_18_16
                      + x_18_17  = 1
 sale_deposito#36:    x_0_1 + x_0_2 + x_0_3 + x_0_4 + x_0_5 + x_0_6 + x_0_7
                      + x_0_8 + x_0_9 + x_0_10 + x_0_11 + x_0_12 + x_0_13
                      + x_0_14 + x_0_15 + x_0_16 + x_0_17 + x_0_18  = 1
 regresa_deposito#37: x_1_0 + x_2_0 + x_3_0 + x_4_0 + x_5_0 + x_6_0 + x_7_0
                      + x_8_0 + x_9_0 + x_10_0 + x_11_0 + x_12_0 + x_13_0
                      + x_14_0 + x_15_0 + x_16_0 + x_17_0 + x_18_0  = 1
 mtz_1_2#38:          18 x_1_2 + u_1 - u_2 <= 17
 mtz_1_3#39:          18 x_1_3 + u_1 - u_3 <= 17
 mtz_1_4#40:          18 x_1_4 + u_1 - u_4 <= 17
 mtz_1_5#41:          18 x_1_5 + u_1 - u_5 <= 17
 mtz_1_6#42:          18 x_1_6 + u_1 - u_6 <= 17
 mtz_1_7#43:          18 x_1_7 + u_1 - u_7 <= 17
 mtz_1_8#44:          18 x_1_8 + u_1 - u_8 <= 17
 mtz_1_9#45:          18 x_1_9 + u_1 - u_9 <= 17
 mtz_1_10#46:         18 x_1_10 + u_1 - u_10 <= 17
 mtz_1_11#47:         18 x_1_11 + u_1 - u_11 <= 17
 mtz_1_12#48:         18 x_1_12 + u_1 - u_12 <= 17
 mtz_1_13#49:         18 x_1_13 + u_1 - u_13 <= 17
 mtz_1_14#50:         18 x_1_14 + u_1 - u_14 <= 17
 mtz_1_15#51:         18 x_1_15 + u_1 - u_15 <= 17
 mtz_1_16#52:         18 x_1_16 + u_1 - u_16 <= 17
 mtz_1_17#53:         18 x_1_17 + u_1 - u_17 <= 17
 mtz_1_18#54:         18 x_1_18 + u_1 - u_18 <= 17
 mtz_2_1#55:          18 x_2_1 - u_1 + u_2 <= 17
 mtz_2_3#56:          18 x_2_3 + u_2 - u_3 <= 17
 mtz_2_4#57:          18 x_2_4 + u_2 - u_4 <= 17
 mtz_2_5#58:          18 x_2_5 + u_2 - u_5 <= 17
 mtz_2_6#59:          18 x_2_6 + u_2 - u_6 <= 17
 mtz_2_7#60:          18 x_2_7 + u_2 - u_7 <= 17
 mtz_2_8#61:          18 x_2_8 + u_2 - u_8 <= 17
 mtz_2_9#62:          18 x_2_9 + u_2 - u_9 <= 17
 mtz_2_10#63:         18 x_2_10 + u_2 - u_10 <= 17
 mtz_2_11#64:         18 x_2_11 + u_2 - u_11 <= 17
 mtz_2_12#65:         18 x_2_12 + u_2 - u_12 <= 17
 mtz_2_13#66:         18 x_2_13 + u_2 - u_13 <= 17
 mtz_2_14#67:         18 x_2_14 + u_2 - u_14 <= 17
 mtz_2_15#68:         18 x_2_15 + u_2 - u_15 <= 17
 mtz_2_16#69:         18 x_2_16 + u_2 - u_16 <= 17
 mtz_2_17#70:         18 x_2_17 + u_2 - u_17 <= 17
 mtz_2_18#71:         18 x_2_18 + u_2 - u_18 <= 17
 mtz_3_1#72:          18 x_3_1 - u_1 + u_3 <= 17
 mtz_3_2#73:          18 x_3_2 - u_2 + u_3 <= 17
 mtz_3_4#74:          18 x_3_4 + u_3 - u_4 <= 17
 mtz_3_5#75:          18 x_3_5 + u_3 - u_5 <= 17
 mtz_3_6#76:          18 x_3_6 + u_3 - u_6 <= 17
 mtz_3_7#77:          18 x_3_7 + u_3 - u_7 <= 17
 mtz_3_8#78:          18 x_3_8 + u_3 - u_8 <= 17
 mtz_3_9#79:          18 x_3_9 + u_3 - u_9 <= 17
 mtz_3_10#80:         18 x_3_10 + u_3 - u_10 <= 17
 mtz_3_11#81:         18 x_3_11 + u_3 - u_11 <= 17
 mtz_3_12#82:         18 x_3_12 + u_3 - u_12 <= 17
 mtz_3_13#83:         18 x_3_13 + u_3 - u_13 <= 17
 mtz_3_14#84:         18 x_3_14 + u_3 - u_14 <= 17
 mtz_3_15#85:         18 x_3_15 + u_3 - u_15 <= 17
 mtz_3_16#86:         18 x_3_16 + u_3 - u_16 <= 17
 mtz_3_17#87:         18 x_3_17 + u_3 - u_17 <= 17
 mtz_3_18#88:         18 x_3_18 + u_3 - u_18 <= 17
 mtz_4_1#89:          18 x_4_1 - u_1 + u_4 <= 17
 mtz_4_2#90:          18 x_4_2 - u_2 + u_4 <= 17
 mtz_4_3#91:          18 x_4_3 - u_3 + u_4 <= 17
 mtz_4_5#92:          18 x_4_5 + u_4 - u_5 <= 17
 mtz_4_6#93:          18 x_4_6 + u_4 - u_6 <= 17
 mtz_4_7#94:          18 x_4_7 + u_4 - u_7 <= 17
 mtz_4_8#95:          18 x_4_8 + u_4 - u_8 <= 17
 mtz_4_9#96:          18 x_4_9 + u_4 - u_9 <= 17
 mtz_4_10#97:         18 x_4_10 + u_4 - u_10 <= 17
 mtz_4_11#98:         18 x_4_11 + u_4 - u_11 <= 17
 mtz_4_12#99:         18 x_4_12 + u_4 - u_12 <= 17
 mtz_4_13#100:        18 x_4_13 + u_4 - u_13 <= 17
 mtz_4_14#101:        18 x_4_14 + u_4 - u_14 <= 17
 mtz_4_15#102:        18 x_4_15 + u_4 - u_15 <= 17
 mtz_4_16#103:        18 x_4_16 + u_4 - u_16 <= 17
 mtz_4_17#104:        18 x_4_17 + u_4 - u_17 <= 17
 mtz_4_18#105:        18 x_4_18 + u_4 - u_18 <= 17
 mtz_5_1#106:         18 x_5_1 - u_1 + u_5 <= 17
 mtz_5_2#107:         18 x_5_2 - u_2 + u_5 <= 17
 mtz_5_3#108:         18 x_5_3 - u_3 + u_5 <= 17
 mtz_5_4#109:         18 x_5_4 - u_4 + u_5 <= 17
 mtz_5_6#110:         18 x_5_6 + u_5 - u_6 <= 17
 mtz_5_7#111:         18 x_5_7 + u_5 - u_7 <= 17
 mtz_5_8#112:         18 x_5_8 + u_5 - u_8 <= 17
 mtz_5_9#113:         18 x_5_9 + u_5 - u_9 <= 17
 mtz_5_10#114:        18 x_5_10 + u_5 - u_10 <= 17
 mtz_5_11#115:        18 x_5_11 + u_5 - u_11 <= 17
 mtz_5_12#116:        18 x_5_12 + u_5 - u_12 <= 17
 mtz_5_13#117:        18 x_5_13 + u_5 - u_13 <= 17
 mtz_5_14#118:        18 x_5_14 + u_5 - u_14 <= 17
 mtz_5_15#119:        18 x_5_15 + u_5 - u_15 <= 17
 mtz_5_16#120:        18 x_5_16 + u_5 - u_16 <= 17
 mtz_5_17#121:        18 x_5_17 + u_5 - u_17 <= 17
 mtz_5_18#122:        18 x_5_18 + u_5 - u_18 <= 17
 mtz_6_1#123:         18 x_6_1 - u_1 + u_6 <= 17
 mtz_6_2#124:         18 x_6_2 - u_2 + u_6 <= 17
 mtz_6_3#125:         18 x_6_3 - u_3 + u_6 <= 17
 mtz_6_4#126:         18 x_6_4 - u_4 + u_6 <= 17
 mtz_6_5#127:         18 x_6_5 - u_5 + u_6 <= 17
 mtz_6_7#128:         18 x_6_7 + u_6 - u_7 <= 17
 mtz_6_8#129:         18 x_6_8 + u_6 - u_8 <= 17
 mtz_6_9#130:         18 x_6_9 + u_6 - u_9 <= 17
 mtz_6_10#131:        18 x_6_10 + u_6 - u_10 <= 17
 mtz_6_11#132:        18 x_6_11 + u_6 - u_11 <= 17
 mtz_6_12#133:        18 x_6_12 + u_6 - u_12 <= 17
 mtz_6_13#134:        18 x_6_13 + u_6 - u_13 <= 17
 mtz_6_14#135:        18 x_6_14 + u_6 - u_14 <= 17
 mtz_6_15#136:        18 x_6_15 + u_6 - u_15 <= 17
 mtz_6_16#137:        18 x_6_16 + u_6 - u_16 <= 17
 mtz_6_17#138:        18 x_6_17 + u_6 - u_17 <= 17
 mtz_6_18#139:        18 x_6_18 + u_6 - u_18 <= 17
 mtz_7_1#140:         18 x_7_1 - u_1 + u_7 <= 17
 mtz_7_2#141:         18 x_7_2 - u_2 + u_7 <= 17
 mtz_7_3#142:         18 x_7_3 - u_3 + u_7 <= 17
 mtz_7_4#143:         18 x_7_4 - u_4 + u_7 <= 17
 mtz_7_5#144:         18 x_7_5 - u_5 + u_7 <= 17
 mtz_7_6#145:         18 x_7_6 - u_6 + u_7 <= 17
 mtz_7_8#146:         18 x_7_8 + u_7 - u_8 <= 17
 mtz_7_9#147:         18 x_7_9 + u_7 - u_9 <= 17
 mtz_7_10#148:        18 x_7_10 + u_7 - u_10 <= 17
 mtz_7_11#149:        18 x_7_11 + u_7 - u_11 <= 17
 mtz_7_12#150:        18 x_7_12 + u_7 - u_12 <= 17
 mtz_7_13#151:        18 x_7_13 + u_7 - u_13 <= 17
 mtz_7_14#152:        18 x_7_14 + u_7 - u_14 <= 17
 mtz_7_15#153:        18 x_7_15 + u_7 - u_15 <= 17
 mtz_7_16#154:        18 x_7_16 + u_7 - u_16 <= 17
 mtz_7_17#155:        18 x_7_17 + u_7 - u_17 <= 17
 mtz_7_18#156:        18 x_7_18 + u_7 - u_18 <= 17
 mtz_8_1#157:         18 x_8_1 - u_1 + u_8 <= 17
 mtz_8_2#158:         18 x_8_2 - u_2 + u_8 <= 17
 mtz_8_3#159:         18 x_8_3 - u_3 + u_8 <= 17
 mtz_8_4#160:         18 x_8_4 - u_4 + u_8 <= 17
 mtz_8_5#161:         18 x_8_5 - u_5 + u_8 <= 17
 mtz_8_6#162:         18 x_8_6 - u_6 + u_8 <= 17
 mtz_8_7#163:         18 x_8_7 - u_7 + u_8 <= 17
 mtz_8_9#164:         18 x_8_9 + u_8 - u_9 <= 17
 mtz_8_10#165:        18 x_8_10 + u_8 - u_10 <= 17
 mtz_8_11#166:        18 x_8_11 + u_8 - u_11 <= 17
 mtz_8_12#167:        18 x_8_12 + u_8 - u_12 <= 17
 mtz_8_13#168:        18 x_8_13 + u_8 - u_13 <= 17
 mtz_8_14#169:        18 x_8_14 + u_8 - u_14 <= 17
 mtz_8_15#170:        18 x_8_15 + u_8 - u_15 <= 17
 mtz_8_16#171:        18 x_8_16 + u_8 - u_16 <= 17
 mtz_8_17#172:        18 x_8_17 + u_8 - u_17 <= 17
 mtz_8_18#173:        18 x_8_18 + u_8 - u_18 <= 17
 mtz_9_1#174:         18 x_9_1 - u_1 + u_9 <= 17
 mtz_9_2#175:         18 x_9_2 - u_2 + u_9 <= 17
 mtz_9_3#176:         18 x_9_3 - u_3 + u_9 <= 17
 mtz_9_4#177:         18 x_9_4 - u_4 + u_9 <= 17
 mtz_9_5#178:         18 x_9_5 - u_5 + u_9 <= 17
 mtz_9_6#179:         18 x_9_6 - u_6 + u_9 <= 17
 mtz_9_7#180:         18 x_9_7 - u_7 + u_9 <= 17
 mtz_9_8#181:         18 x_9_8 - u_8 + u_9 <= 17
 mtz_9_10#182:        18 x_9_10 + u_9 - u_10 <= 17
 mtz_9_11#183:        18 x_9_11 + u_9 - u_11 <= 17
 mtz_9_12#184:        18 x_9_12 + u_9 - u_12 <= 17
 mtz_9_13#185:        18 x_9_13 + u_9 - u_13 <= 17
 mtz_9_14#186:        18 x_9_14 + u_9 - u_14 <= 17
 mtz_9_15#187:        18 x_9_15 + u_9 - u_15 <= 17
 mtz_9_16#188:        18 x_9_16 + u_9 - u_16 <= 17
 mtz_9_17#189:        18 x_9_17 + u_9 - u_17 <= 17
 mtz_9_18#190:        18 x_9_18 + u_9 - u_18 <= 17
 mtz_10_1#191:        18 x_10_1 - u_1 + u_10 <= 17
 mtz_10_2#192:        18 x_10_2 - u_2 + u_10 <= 17
 mtz_10_3#193:        18 x_10_3 - u_3 + u_10 <= 17
 mtz_10_4#194:        18 x_10_4 - u_4 + u_10 <= 17
 mtz_10_5#195:        18 x_10_5 - u_5 + u_10 <= 17
 mtz_10_6#196:        18 x_10_6 - u_6 + u_10 <= 17
 mtz_10_7#197:        18 x_10_7 - u_7 + u_10 <= 17
 mtz_10_8#198:        18 x_10_8 - u_8 + u_10 <= 17
 mtz_10_9#199:        18 x_10_9 - u_9 + u_10 <= 17
 mtz_10_11#200:       18 x_10_11 + u_10 - u_11 <= 17
 mtz_10_12#201:       18 x_10_12 + u_10 - u_12 <= 17
 mtz_10_13#202:       18 x_10_13 + u_10 - u_13 <= 17
 mtz_10_14#203:       18 x_10_14 + u_10 - u_14 <= 17
 mtz_10_15#204:       18 x_10_15 + u_10 - u_15 <= 17
 mtz_10_16#205:       18 x_10_16 + u_10 - u_16 <= 17
 mtz_10_17#206:       18 x_10_17 + u_10 - u_17 <= 17
 mtz_10_18#207:       18 x_10_18 + u_10 - u_18 <= 17
 mtz_11_1#208:        18 x_11_1 - u_1 + u_11 <= 17
 mtz_11_2#209:        18 x_11_2 - u_2 + u_11 <= 17
 mtz_11_3#210:        18 x_11_3 - u_3 + u_11 <= 17
 mtz_11_4#211:        18 x_11_4 - u_4 + u_11 <= 17
 mtz_11_5#212:        18 x_11_5 - u_5 + u_11 <= 17
 mtz_11_6#213:        18 x_11_6 - u_6 + u_11 <= 17
 mtz_11_7#214:        18 x_11_7 - u_7 + u_11 <= 17
 mtz_11_8#215:        18 x_11_8 - u_8 + u_11 <= 17
 mtz_11_9#216:        18 x_11_9 - u_9 + u_11 <= 17
 mtz_11_10#217:       18 x_11_10 - u_10 + u_11 <= 17
 mtz_11_12#218:       18 x_11_12 + u_11 - u_12 <= 17
 mtz_11_13#219:       18 x_11_13 + u_11 - u_13 <= 17
 mtz_11_14#220:       18 x_11_14 + u_11 - u_14 <= 17
 mtz_11_15#221:       18 x_11_15 + u_11 - u_15 <= 17
 mtz_11_16#222:       18 x_11_16 + u_11 - u_16 <= 17
 mtz_11_17#223:       18 x_11_17 + u_11 - u_17 <= 17
 mtz_11_18#224:       18 x_11_18 + u_11 - u_18 <= 17
 mtz_12_1#225:        18 x_12_1 - u_1 + u_12 <= 17
 mtz_12_2#226:        18 x_12_2 - u_2 + u_12 <= 17
 mtz_12_3#227:        18 x_12_3 - u_3 + u_12 <= 17
 mtz_12_4#228:        18 x_12_4 - u_4 + u_12 <= 17
 mtz_12_5#229:        18 x_12_5 - u_5 + u_12 <= 17
 mtz_12_6#230:        18 x_12_6 - u_6 + u_12 <= 17
 mtz_12_7#231:        18 x_12_7 - u_7 + u_12 <= 17
 mtz_12_8#232:        18 x_12_8 - u_8 + u_12 <= 17
 mtz_12_9#233:        18 x_12_9 - u_9 + u_12 <= 17
 mtz_12_10#234:       18 x_12_10 - u_10 + u_12 <= 17
 mtz_12_11#235:       18 x_12_11 - u_11 + u_12 <= 17
 mtz_12_13#236:       18 x_12_13 + u_12 - u_13 <= 17
 mtz_12_14#237:       18 x_12_14 + u_12 - u_14 <= 17
 mtz_12_15#238:       18 x_12_15 + u_12 - u_15 <= 17
 mtz_12_16#239:       18 x_12_16 + u_12 - u_16 <= 17
 mtz_12_17#240:       18 x_12_17 + u_12 - u_17 <= 17
 mtz_12_18#241:       18 x_12_18 + u_12 - u_18 <= 17
 mtz_13_1#242:        18 x_13_1 - u_1 + u_13 <= 17
 mtz_13_2#243:        18 x_13_2 - u_2 + u_13 <= 17
 mtz_13_3#244:        18 x_13_3 - u_3 + u_13 <= 17
 mtz_13_4#245:        18 x_13_4 - u_4 + u_13 <= 17
 mtz_13_5#246:        18 x_13_5 - u_5 + u_13 <= 17
 mtz_13_6#247:        18 x_13_6 - u_6 + u_13 <= 17
 mtz_13_7#248:        18 x_13_7 - u_7 + u_13 <= 17
 mtz_13_8#249:        18 x_13_8 - u_8 + u_13 <= 17
 mtz_13_9#250:        18 x_13_9 - u_9 + u_13 <= 17
 mtz_13_10#251:       18 x_13_10 - u_10 + u_13 <= 17
 mtz_13_11#252:       18 x_13_11 - u_11 + u_13 <= 17
 mtz_13_12#253:       18 x_13_12 - u_12 + u_13 <= 17
 mtz_13_14#254:       18 x_13_14 + u_13 - u_14 <= 17
 mtz_13_15#255:       18 x_13_15 + u_13 - u_15 <= 17
 mtz_13_16#256:       18 x_13_16 + u_13 - u_16 <= 17
 mtz_13_17#257:       18 x_13_17 + u_13 - u_17 <= 17
 mtz_13_18#258:       18 x_13_18 + u_13 - u_18 <= 17
 mtz_14_1#259:        18 x_14_1 - u_1 + u_14 <= 17
 mtz_14_2#260:        18 x_14_2 - u_2 + u_14 <= 17
 mtz_14_3#261:        18 x_14_3 - u_3 + u_14 <= 17
 mtz_14_4#262:        18 x_14_4 - u_4 + u_14 <= 17
 mtz_14_5#263:        18 x_14_5 - u_5 + u_14 <= 17
 mtz_14_6#264:        18 x_14_6 - u_6 + u_14 <= 17
 mtz_14_7#265:        18 x_14_7 - u_7 + u_14 <= 17
 mtz_14_8#266:        18 x_14_8 - u_8 + u_14 <= 17
 mtz_14_9#267:        18 x_14_9 - u_9 + u_14 <= 17
 mtz_14_10#268:       18 x_14_10 - u_10 + u_14 <= 17
 mtz_14_11#269:       18 x_14_11 - u_11 + u_14 <= 17
 mtz_14_12#270:       18 x_14_12 - u_12 + u_14 <= 17
 mtz_14_13#271:       18 x_14_13 - u_13 + u_14 <= 17
 mtz_14_15#272:       18 x_14_15 + u_14 - u_15 <= 17
 mtz_14_16#273:       18 x_14_16 + u_14 - u_16 <= 17
 mtz_14_17#274:       18 x_14_17 + u_14 - u_17 <= 17
 mtz_14_18#275:       18 x_14_18 + u_14 - u_18 <= 17
 mtz_15_1#276:        18 x_15_1 - u_1 + u_15 <= 17
 mtz_15_2#277:        18 x_15_2 - u_2 + u_15 <= 17
 mtz_15_3#278:        18 x_15_3 - u_3 + u_15 <= 17
 mtz_15_4#279:        18 x_15_4 - u_4 + u_15 <= 17
 mtz_15_5#280:        18 x_15_5 - u_5 + u_15 <= 17
 mtz_15_6#281:        18 x_15_6 - u_6 + u_15 <= 17
 mtz_15_7#282:        18 x_15_7 - u_7 + u_15 <= 17
 mtz_15_8#283:        18 x_15_8 - u_8 + u_15 <= 17
 mtz_15_9#284:        18 x_15_9 - u_9 + u_15 <= 17
 mtz_15_10#285:       18 x_15_10 - u_10 + u_15 <= 17
 mtz_15_11#286:       18 x_15_11 - u_11 + u_15 <= 17
 mtz_15_12#287:       18 x_15_12 - u_12 + u_15 <= 17
 mtz_15_13#288:       18 x_15_13 - u_13 + u_15 <= 17
 mtz_15_14#289:       18 x_15_14 - u_14 + u_15 <= 17
 mtz_15_16#290:       18 x_15_16 + u_15 - u_16 <= 17
 mtz_15_17#291:       18 x_15_17 + u_15 - u_17 <= 17
 mtz_15_18#292:       18 x_15_18 + u_15 - u_18 <= 17
 mtz_16_1#293:        18 x_16_1 - u_1 + u_16 <= 17
 mtz_16_2#294:        18 x_16_2 - u_2 + u_16 <= 17
 mtz_16_3#295:        18 x_16_3 - u_3 + u_16 <= 17
 mtz_16_4#296:        18 x_16_4 - u_4 + u_16 <= 17
 mtz_16_5#297:        18 x_16_5 - u_5 + u_16 <= 17
 mtz_16_6#298:        18 x_16_6 - u_6 + u_16 <= 17
 mtz_16_7#299:        18 x_16_7 - u_7 + u_16 <= 17
 mtz_16_8#300:        18 x_16_8 - u_8 + u_16 <= 17
 mtz_16_9#301:        18 x_16_9 - u_9 + u_16 <= 17
 mtz_16_10#302:       18 x_16_10 - u_10 + u_16 <= 17
 mtz_16_11#303:       18 x_16_11 - u_11 + u_16 <= 17
 mtz_16_12#304:       18 x_16_12 - u_12 + u_16 <= 17
 mtz_16_13#305:       18 x_16_13 - u_13 + u_16 <= 17
 mtz_16_14#306:       18 x_16_14 - u_14 + u_16 <= 17
 mtz_16_15#307:       18 x_16_15 - u_15 + u_16 <= 17
 mtz_16_17#308:       18 x_16_17 + u_16 - u_17 <= 17
 mtz_16_18#309:       18 x_16_18 + u_16 - u_18 <= 17
 mtz_17_1#310:        18 x_17_1 - u_1 + u_17 <= 17
 mtz_17_2#311:        18 x_17_2 - u_2 + u_17 <= 17
 mtz_17_3#312:        18 x_17_3 - u_3 + u_17 <= 17
 mtz_17_4#313:        18 x_17_4 - u_4 + u_17 <= 17
 mtz_17_5#314:        18 x_17_5 - u_5 + u_17 <= 17
 mtz_17_6#315:        18 x_17_6 - u_6 + u_17 <= 17
 mtz_17_7#316:        18 x_17_7 - u_7 + u_17 <= 17
 mtz_17_8#317:        18 x_17_8 - u_8 + u_17 <= 17
 mtz_17_9#318:        18 x_17_9 - u_9 + u_17 <= 17
 mtz_17_10#319:       18 x_17_10 - u_10 + u_17 <= 17
 mtz_17_11#320:       18 x_17_11 - u_11 + u_17 <= 17
 mtz_17_12#321:       18 x_17_12 - u_12 + u_17 <= 17
 mtz_17_13#322:       18 x_17_13 - u_13 + u_17 <= 17
 mtz_17_14#323:       18 x_17_14 - u_14 + u_17 <= 17
 mtz_17_15#324:       18 x_17_15 - u_15 + u_17 <= 17
 mtz_17_16#325:       18 x_17_16 - u_16 + u_17 <= 17
 mtz_17_18#326:       18 x_17_18 + u_17 - u_18 <= 17
 mtz_18_1#327:        18 x_18_1 - u_1 + u_18 <= 17
 mtz_18_2#328:        18 x_18_2 - u_2 + u_18 <= 17
 mtz_18_3#329:        18 x_18_3 - u_3 + u_18 <= 17
 mtz_18_4#330:        18 x_18_4 - u_4 + u_18 <= 17
 mtz_18_5#331:        18 x_18_5 - u_5 + u_18 <= 17
 mtz_18_6#332:        18 x_18_6 - u_6 + u_18 <= 17
 mtz_18_7#333:        18 x_18_7 - u_7 + u_18 <= 17
 mtz_18_8#334:        18 x_18_8 - u_8 + u_18 <= 17
 mtz_18_9#335:        18 x_18_9 - u_9 + u_18 <= 17
 mtz_18_10#336:       18 x_18_10 - u_10 + u_18 <= 17
 mtz_18_11#337:       18 x_18_11 - u_11 + u_18 <= 17
 mtz_18_12#338:       18 x_18_12 - u_12 + u_18 <= 17
 mtz_18_13#339:       18 x_18_13 - u_13 + u_18 <= 17
 mtz_18_14#340:       18 x_18_14 - u_14 + u_18 <= 17
 mtz_18_15#341:       18 x_18_15 - u_15 + u_18 <= 17
 mtz_18_16#342:       18 x_18_16 - u_16 + u_18 <= 17
 mtz_18_17#343:       18 x_18_17 - u_17 + u_18 <= 17
Bounds
 0 <= x_0_1 <= 1
 0 <= x_0_2 <= 1
 0 <= x_0_3 <= 1
 0 <= x_0_4 <= 1
 0 <= x_0_5 <= 1
 0 <= x_0_6 <= 1
 0 <= x_0_7 <= 1
 0 <= x_0_8 <= 1
 0 <= x_0_9 <= 1
 0 <= x_0_10 <= 1
 0 <= x_0_11 <= 1
 0 <= x_0_12 <= 1
 0 <= x_0_13 <= 1
 0 <= x_0_14 <= 1
 0 <= x_0_15 <= 1
 0 <= x_0_16 <= 1
 0 <= x_0_17 <= 1
 0 <= x_0_18 <= 1
 0 <= x_1_0 <= 1
 0 <= x_1_2 <= 1
 0 <= x_1_3 <= 1
 0 <= x_1_4 <= 1
 0 <= x_1_5 <= 1
 0 <= x_1_6 <= 1
 0 <= x_1_7 <= 1
 0 <= x_1_8 <= 1
 0 <= x_1_9 <= 1
 0 <= x_1_10 <= 1
 0 <= x_1_11 <= 1
 0 <= x_1_12 <= 1
 0 <= x_1_13 <= 1
 0 <= x_1_14 <= 1
 0 <= x_1_15 <= 1
 0 <= x_1_16 <= 1
 0 <= x_1_17 <= 1
 0 <= x_1_18 <= 1
 0 <= x_2_0 <= 1
 0 <= x_2_1 <= 1
 0 <= x_2_3 <= 1
 0 <= x_2_4 <= 1
 0 <= x_2_5 <= 1
 0 <= x_2_6 <= 1
 0 <= x_2_7 <= 1
 0 <= x_2_8 <= 1
 0 <= x_2_9 <= 1
 0 <= x_2_10 <= 1
 0 <= x_2_11 <= 1
 0 <= x_2_12 <= 1
 0 <= x_2_13 <= 1
 0 <= x_2_14 <= 1
 0 <= x_2_15 <= 1
 0 <= x_2_16 <= 1
 0 <= x_2_17 <= 1
 0 <= x_2_18 <= 1
 0 <= x_3_0 <= 1
 0 <= x_3_1 <= 1
 0 <= x_3_2 <= 1
 0 <= x_3_4 <= 1
 0 <= x_3_5 <= 1
 0 <= x_3_6 <= 1
 0 <= x_3_7 <= 1
 0 <= x_3_8 <= 1
 0 <= x_3_9 <= 1
 0 <= x_3_10 <= 1
 0 <= x_3_11 <= 1
 0 <= x_3_12 <= 1
 0 <= x_3_13 <= 1
 0 <= x_3_14 <= 1
 0 <= x_3_15 <= 1
 0 <= x_3_16 <= 1
 0 <= x_3_17 <= 1
 0 <= x_3_18 <= 1
 0 <= x_4_0 <= 1
 0 <= x_4_1 <= 1
 0 <= x_4_2 <= 1
 0 <= x_4_3 <= 1
 0 <= x_4_5 <= 1
 0 <= x_4_6 <= 1
 0 <= x_4_7 <= 1
 0 <= x_4_8 <= 1
 0 <= x_4_9 <= 1
 0 <= x_4_10 <= 1
 0 <= x_4_11 <= 1
 0 <= x_4_12 <= 1
 0 <= x_4_13 <= 1
 0 <= x_4_14 <= 1
 0 <= x_4_15 <= 1
 0 <= x_4_16 <= 1
 0 <= x_4_17 <= 1
 0 <= x_4_18 <= 1
 0 <= x_5_0 <= 1
 0 <= x_5_1 <= 1
 0 <= x_5_2 <= 1
 0 <= x_5_3 <= 1
 0 <= x_5_4 <= 1
 0 <= x_5_6 <= 1
 0 <= x_5_7 <= 1
 0 <= x_5_8 <= 1
 0 <= x_5_9 <= 1
 0 <= x_5_10 <= 1
 0 <= x_5_11 <= 1
 0 <= x_5_12 <= 1
 0 <= x_5_13 <= 1
 0 <= x_5_14 <= 1
 0 <= x_5_15 <= 1
 0 <= x_5_16 <= 1
 0 <= x_5_17 <= 1
 0 <= x_5_18 <= 1
 0 <= x_6_0 <= 1
 0 <= x_6_1 <= 1
 0 <= x_6_2 <= 1
 0 <= x_6_3 <= 1
 0 <= x_6_4 <= 1
 0 <= x_6_5 <= 1
 0 <= x_6_7 <= 1
 0 <= x_6_8 <= 1
 0 <= x_6_9 <= 1
 0 <= x_6_10 <= 1
 0 <= x_6_11 <= 1
 0 <= x_6_12 <= 1
 0 <= x_6_13 <= 1
 0 <= x_6_14 <= 1
 0 <= x_6_15 <= 1
 0 <= x_6_16 <= 1
 0 <= x_6_17 <= 1
 0 <= x_6_18 <= 1
 0 <= x_7_0 <= 1
 0 <= x_7_1 <= 1
 0 <= x_7_2 <= 1
 0 <= x_7_3 <= 1
 0 <= x_7_4 <= 1
 0 <= x_7_5 <= 1
 0 <= x_7_6 <= 1
 0 <= x_7_8 <= 1
 0 <= x_7_9 <= 1
 0 <= x_7_10 <= 1
 0 <= x_7_11 <= 1
 0 <= x_7_12 <= 1
 0 <= x_7_13 <= 1
 0 <= x_7_14 <= 1
 0 <= x_7_15 <= 1
 0 <= x_7_16 <= 1
 0 <= x_7_17 <= 1
 0 <= x_7_18 <= 1
 0 <= x_8_0 <= 1
 0 <= x_8_1 <= 1
 0 <= x_8_2 <= 1
 0 <= x_8_3 <= 1
 0 <= x_8_4 <= 1
 0 <= x_8_5 <= 1
 0 <= x_8_6 <= 1
 0 <= x_8_7 <= 1
 0 <= x_8_9 <= 1
 0 <= x_8_10 <= 1
 0 <= x_8_11 <= 1
 0 <= x_8_12 <= 1
 0 <= x_8_13 <= 1
 0 <= x_8_14 <= 1
 0 <= x_8_15 <= 1
 0 <= x_8_16 <= 1
 0 <= x_8_17 <= 1
 0 <= x_8_18 <= 1
 0 <= x_9_0 <= 1
 0 <= x_9_1 <= 1
 0 <= x_9_2 <= 1
 0 <= x_9_3 <= 1
 0 <= x_9_4 <= 1
 0 <= x_9_5 <= 1
 0 <= x_9_6 <= 1
 0 <= x_9_7 <= 1
 0 <= x_9_8 <= 1
 0 <= x_9_10 <= 1
 0 <= x_9_11 <= 1
 0 <= x_9_12 <= 1
 0 <= x_9_13 <= 1
 0 <= x_9_14 <= 1
 0 <= x_9_15 <= 1
 0 <= x_9_16 <= 1
 0 <= x_9_17 <= 1
 0 <= x_9_18 <= 1
 0 <= x_10_0 <= 1
 0 <= x_10_1 <= 1
 0 <= x_10_2 <= 1
 0 <= x_10_3 <= 1
 0 <= x_10_4 <= 1
 0 <= x_10_5 <= 1
 0 <= x_10_6 <= 1
 0 <= x_10_7 <= 1
 0 <= x_10_8 <= 1
 0 <= x_10_9 <= 1
 0 <= x_10_11 <= 1
 0 <= x_10_12 <= 1
 0 <= x_10_13 <= 1
 0 <= x_10_14 <= 1
 0 <= x_10_15 <= 1
 0 <= x_10_16 <= 1
 0 <= x_10_17 <= 1
 0 <= x_10_18 <= 1
 0 <= x_11_0 <= 1
 0 <= x_11_1 <= 1
 0 <= x_11_2 <= 1
 0 <= x_11_3 <= 1
 0 <= x_11_4 <= 1
 0 <= x_11_5 <= 1
 0 <= x_11_6 <= 1
 0 <= x_11_7 <= 1
 0 <= x_11_8 <= 1
 0 <= x_11_9 <= 1
 0 <= x_11_10 <= 1
 0 <= x_11_12 <= 1
 0 <= x_11_13 <= 1
 0 <= x_11_14 <= 1
 0 <= x_11_15 <= 1
 0 <= x_11_16 <= 1
 0 <= x_11_17 <= 1
 0 <= x_11_18 <= 1
 0 <= x_12_0 <= 1
 0 <= x_12_1 <= 1
 0 <= x_12_2 <= 1
 0 <= x_12_3 <= 1
 0 <= x_12_4 <= 1
 0 <= x_12_5 <= 1
 0 <= x_12_6 <= 1
 0 <= x_12_7 <= 1
 0 <= x_12_8 <= 1
 0 <= x_12_9 <= 1
 0 <= x_12_10 <= 1
 0 <= x_12_11 <= 1
 0 <= x_12_13 <= 1
 0 <= x_12_14 <= 1
 0 <= x_12_15 <= 1
 0 <= x_12_16 <= 1
 0 <= x_12_17 <= 1
 0 <= x_12_18 <= 1
 0 <= x_13_0 <= 1
 0 <= x_13_1 <= 1
 0 <= x_13_2 <= 1
 0 <= x_13_3 <= 1
 0 <= x_13_4 <= 1
 0 <= x_13_5 <= 1
 0 <= x_13_6 <= 1
 0 <= x_13_7 <= 1
 0 <= x_13_8 <= 1
 0 <= x_13_9 <= 1
 0 <= x_13_10 <= 1
 0 <= x_13_11 <= 1
 0 <= x_13_12 <= 1
 0 <= x_13_14 <= 1
 0 <= x_13_15 <= 1
 0 <= x_13_16 <= 1
 0 <= x_13_17 <= 1
 0 <= x_13_18 <= 1
 0 <= x_14_0 <= 1
 0 <= x_14_1 <= 1
 0 <= x_14_2 <= 1
 0 <= x_14_3 <= 1
 0 <= x_14_4 <= 1
 0 <= x_14_5 <= 1
 0 <= x_14_6 <= 1
 0 <= x_14_7 <= 1
 0 <= x_14_8 <= 1
 0 <= x_14_9 <= 1
 0 <= x_14_10 <= 1
 0 <= x_14_11 <= 1
 0 <= x_14_12 <= 1
 0 <= x_14_13 <= 1
 0 <= x_14_15 <= 1
 0 <= x_14_16 <= 1
 0 <= x_14_17 <= 1
 0 <= x_14_18 <= 1
 0 <= x_15_0 <= 1
 0 <= x_15_1 <= 1
 0 <= x_15_2 <= 1
 0 <= x_15_3 <= 1
 0 <= x_15_4 <= 1
 0 <= x_15_5 <= 1
 0 <= x_15_6 <= 1
 0 <= x_15_7 <= 1
 0 <= x_15_8 <= 1
 0 <= x_15_9 <= 1
 0 <= x_15_10 <= 1
 0 <= x_15_11 <= 1
 0 <= x_15_12 <= 1
 0 <= x_15_13 <= 1
 0 <= x_15_14 <= 1
 0 <= x_15_16 <= 1
 0 <= x_15_17 <= 1
 0 <= x_15_18 <= 1
 0 <= x_16_0 <= 1
 0 <= x_16_1 <= 1
 0 <= x_16_2 <= 1
 0 <= x_16_3 <= 1
 0 <= x_16_4 <= 1
 0 <= x_16_5 <= 1
 0 <= x_16_6 <= 1
 0 <= x_16_7 <= 1
 0 <= x_16_8 <= 1
 0 <= x_16_9 <= 1
 0 <= x_16_10 <= 1
 0 <= x_16_11 <= 1
 0 <= x_16_12 <= 1
 0 <= x_16_13 <= 1
 0 <= x_16_14 <= 1
 0 <= x_16_15 <= 1
 0 <= x_16_17 <= 1
 0 <= x_16_18 <= 1
 0 <= x_17_0 <= 1
 0 <= x_17_1 <= 1
 0 <= x_17_2 <= 1
 0 <= x_17_3 <= 1
 0 <= x_17_4 <= 1
 0 <= x_17_5 <= 1
 0 <= x_17_6 <= 1
 0 <= x_17_7 <= 1
 0 <= x_17_8 <= 1
 0 <= x_17_9 <= 1
 0 <= x_17_10 <= 1
 0 <= x_17_11 <= 1
 0 <= x_17_12 <= 1
 0 <= x_17_13 <= 1
 0 <= x_17_14 <= 1
 0 <= x_17_15 <= 1
 0 <= x_17_16 <= 1
 0 <= x_17_18 <= 1
 0 <= x_18_0 <= 1
 0 <= x_18_1 <= 1
 0 <= x_18_2 <= 1
 0 <= x_18_3 <= 1
 0 <= x_18_4 <= 1
 0 <= x_18_5 <= 1
 0 <= x_18_6 <= 1
 0 <= x_18_7 <= 1
 0 <= x_18_8 <= 1
 0 <= x_18_9 <= 1
 0 <= x_18_10 <= 1
 0 <= x_18_11 <= 1
 0 <= x_18_12 <= 1
 0 <= x_18_13 <= 1
 0 <= x_18_14 <= 1
 0 <= x_18_15 <= 1
 0 <= x_18_16 <= 1
 0 <= x_18_17 <= 1
 0 <= u_0 <= 18
 0 <= u_1 <= 18
 0 <= u_2 <= 18
 0 <= u_3 <= 18
 0 <= u_4 <= 18
 0 <= u_5 <= 18
 0 <= u_6 <= 18
 0 <= u_7 <= 18
 0 <= u_8 <= 18
 0 <= u_9 <= 18
 0 <= u_10 <= 18
 0 <= u_11 <= 18
 0 <= u_12 <= 18
 0 <= u_13 <= 18
 0 <= u_14 <= 18
 0 <= u_15 <= 18
 0 <= u_16 <= 18
 0 <= u_17 <= 18
 0 <= u_18 <= 18
Binaries
 x_0_1  x_0_2  x_0_3  x_0_4  x_0_5  x_0_6  x_0_7  x_0_8  x_0_9  x_0_10  x_0_11 
 x_0_12  x_0_13  x_0_14  x_0_15  x_0_16  x_0_17  x_0_18  x_1_0  x_1_2  x_1_3 
 x_1_4  x_1_5  x_1_6  x_1_7  x_1_8  x_1_9  x_1_10  x_1_11  x_1_12  x_1_13 
 x_1_14  x_1_15  x_1_16  x_1_17  x_1_18  x_2_0  x_2_1  x_2_3  x_2_4  x_2_5 
 x_2_6  x_2_7  x_2_8  x_2_9  x_2_10  x_2_11  x_2_12  x_2_13  x_2_14  x_2_15 
 x_2_16  x_2_17  x_2_18  x_3_0  x_3_1  x_3_2  x_3_4  x_3_5  x_3_6  x_3_7 
 x_3_8  x_3_9  x_3_10  x_3_11  x_3_12  x_3_13  x_3_14  x_3_15  x_3_16  x_3_17 
 x_3_18  x_4_0  x_4_1  x_4_2  x_4_3  x_4_5  x_4_6  x_4_7  x_4_8  x_4_9  x_4_10 
 x_4_11  x_4_12  x_4_13  x_4_14  x_4_15  x_4_16  x_4_17  x_4_18  x_5_0  x_5_1 
 x_5_2  x_5_3  x_5_4  x_5_6  x_5_7  x_5_8  x_5_9  x_5_10  x_5_11  x_5_12 
 x_5_13  x_5_14  x_5_15  x_5_16  x_5_17  x_5_18  x_6_0  x_6_1  x_6_2  x_6_3 
 x_6_4  x_6_5  x_6_7  x_6_8  x_6_9  x_6_10  x_6_11  x_6_12  x_6_13  x_6_14 
 x_6_15  x_6_16  x_6_17  x_6_18  x_7_0  x_7_1  x_7_2  x_7_3  x_7_4  x_7_5 
 x_7_6  x_7_8  x_7_9  x_7_10  x_7_11  x_7_12  x_7_13  x_7_14  x_7_15  x_7_16 
 x_7_17  x_7_18  x_8_0  x_8_1  x_8_2  x_8_3  x_8_4  x_8_5  x_8_6  x_8_7  x_8_9 
 x_8_10  x_8_11  x_8_12  x_8_13  x_8_14  x_8_15  x_8_16  x_8_17  x_8_18  x_9_0 
 x_9_1  x_9_2  x_9_3  x_9_4  x_9_5  x_9_6  x_9_7  x_9_8  x_9_10  x_9_11 
 x_9_12  x_9_13  x_9_14  x_9_15  x_9_16  x_9_17  x_9_18  x_10_0  x_10_1 
 x_10_2  x_10_3  x_10_4  x_10_5  x_10_6  x_10_7  x_10_8  x_10_9  x_10_11 
 x_10_12  x_10_13  x_10_14  x_10_15  x_10_16  x_10_17  x_10_18  x_11_0  x_11_1 
 x_11_2  x_11_3  x_11_4  x_11_5  x_11_6  x_11_7  x_11_8  x_11_9  x_11_10 
 x_11_12  x_11_13  x_11_14  x_11_15  x_11_16  x_11_17  x_11_18  x_12_0  x_12_1 
 x_12_2  x_12_3  x_12_4  x_12_5  x_12_6  x_12_7  x_12_8  x_12_9  x_12_10 
 x_12_11  x_12_13  x_12_14  x_12_15  x_12_16  x_12_17  x_12_18  x_13_0  x_13_1 
 x_13_2  x_13_3  x_13_4  x_13_5  x_13_6  x_13_7  x_13_8  x_13_9  x_13_10 
 x_13_11  x_13_12  x_13_14  x_13_15  x_13_16  x_13_17  x_13_18  x_14_0  x_14_1 
 x_14_2  x_14_3  x_14_4  x_14_5  x_14_6  x_14_7  x_14_8  x_14_9  x_14_10 
 x_14_11  x_14_12  x_14_13  x_14_15  x_14_16  x_14_17  x_14_18  x_15_0  x_15_1 
 x_15_2  x_15_3  x_15_4  x_15_5  x_15_6  x_15_7  x_15_8  x_15_9  x_15_10 
 x_15_11  x_15_12  x_15_13  x_15_14  x_15_16  x_15_17  x_15_18  x_16_0  x_16_1 
 x_16_2  x_16_3  x_16_4  x_16_5  x_16_6  x_16_7  x_16_8  x_16_9  x_16_10 
 x_16_11  x_16_12  x_16_13  x_16_14  x_16_15  x_16_17  x_16_18  x_17_0  x_17_1 
 x_17_2  x_17_3  x_17_4  x_17_5  x_17_6  x_17_7  x_17_8  x_17_9  x_17_10 
 x_17_11  x_17_12  x_17_13  x_17_14  x_17_15  x_17_16  x_17_18  x_18_0  x_18_1 
 x_18_2  x_18_3  x_18_4  x_18_5  x_18_6  x_18_7  x_18_8  x_18_9  x_18_10 
 x_18_11  x_18_12  x_18_13  x_18_14  x_18_15  x_18_16  x_18_17 
Generals
 u_0  u_1  u_2  u_3  u_4  u_5  u_6  u_7  u_8  u_9  u_10  u_11  u_12  u_13 
 u_14  u_15  u_16  u_17  u_18 
End
